Instance: Data/Instances_txt/inst_100_50_4.txt
SetUpTime: 834.8652799129486

Gurobi 10.0.1 (mac64[x86]) logging started Di  1 Aug 20:28:24 2023

Set parameter LogFile to value "Output/MILP_RELAXED_inst_100_50_4_2023-08-01_16-28-50.txt"
Set parameter TimeLimit to value 2700

Gurobi 10.0.1 (mac64[x86]) logging started Di  1 Aug 20:28:24 2023

Set parameter LogFile to value "Output/MILP_RELAXED_inst_100_50_4_2023-08-01_16-28-50.txt"
Gurobi Optimizer version 10.0.1 build v10.0.1rc0 (mac64[x86])

CPU model: Intel(R) Core(TM) i5-1038NG7 CPU @ 2.00GHz
Thread count: 4 physical cores, 8 logical processors, using up to 8 threads

Optimize a model with 201 rows, 336692 columns and 5167920 nonzeros
Model fingerprint: 0x77f19286
Coefficient statistics:
  Matrix range     [1e+00, 1e+00]
  Objective range  [6e+00, 1e+04]
  Bounds range     [1e+00, 1e+00]
  RHS range        [1e+00, 1e+00]
Presolve time: 1.61s
Presolved: 201 rows, 336692 columns, 5167920 nonzeros

Concurrent LP optimizer: dual simplex and barrier
Showing barrier log only...

Ordering time: 0.00s

Barrier statistics:
 AA' NZ     : 1.630e+04
 Factor NZ  : 1.872e+04 (roughly 130 MB of memory)
 Factor Ops : 2.215e+06 (less than 1 second per iteration)
 Threads    : 3

                  Objective                Residual
Iter       Primal          Dual         Primal    Dual     Compl     Time
   0   1.16161390e+08  0.00000000e+00  1.00e+04 0.00e+00  8.58e-01     2s
   1   1.93868643e+07 -8.60072826e+03  1.61e+03 1.99e+00  1.40e-01     2s
   2   1.47271937e+06 -1.11438114e+04  1.15e+02 3.52e-13  1.06e-02     3s
   3   9.22844505e+04 -8.88855641e+03  5.07e+00 2.17e-13  6.67e-04     3s
   4   7.10848040e+04  1.77296637e+03  3.43e+00 3.55e-13  4.17e-04     3s
   5   4.60088448e+04  7.34316618e+03  1.54e+00 2.18e-13  2.18e-04     3s
   6   3.63663230e+04  9.14752949e+03  9.13e-01 2.38e-13  1.50e-04     3s
   7   3.03357546e+04  1.06297001e+04  5.23e-01 3.55e-13  1.07e-04     3s
   8   2.52807517e+04  1.34841555e+04  2.36e-01 4.05e-13  6.29e-05     4s
   9   2.35718565e+04  1.36567125e+04  1.60e-01 3.41e-13  5.36e-05     4s
  10   2.13904837e+04  1.53609874e+04  6.89e-02 3.06e-13  3.27e-05     4s
  11   2.00119311e+04  1.68946176e+04  2.69e-02 4.09e-13  1.70e-05     4s
  12   1.93312660e+04  1.71424712e+04  1.36e-02 3.13e-13  1.21e-05     4s
  13   1.92897181e+04  1.72186820e+04  1.30e-02 2.92e-13  1.14e-05     4s
  14   1.91685018e+04  1.73891722e+04  1.16e-02 3.48e-13  9.80e-06     5s
  15   1.89561673e+04  1.74486374e+04  9.03e-03 3.55e-13  8.33e-06     5s
  16   1.85321534e+04  1.74901279e+04  4.86e-03 3.41e-13  5.82e-06     5s
  17   1.82552269e+04  1.75720490e+04  2.71e-03 4.07e-13  3.84e-06     5s
  18   1.80826471e+04  1.76266894e+04  1.56e-03 3.48e-13  2.57e-06     5s
  19   1.80570132e+04  1.76449365e+04  1.45e-03 3.02e-13  2.32e-06     5s
  20   1.78640306e+04  1.76677797e+04  5.62e-04 3.06e-13  1.11e-06     6s
  21   1.77660972e+04  1.76804977e+04  2.04e-04 2.38e-13  4.87e-07     6s
  22   1.77201899e+04  1.76881474e+04  5.17e-05 2.80e-13  1.83e-07     6s
  23   1.77121028e+04  1.76939113e+04  2.97e-05 2.63e-13  1.04e-07     6s
  24   1.77075947e+04  1.76964224e+04  1.82e-05 3.27e-13  6.39e-08     6s
  25   1.77049575e+04  1.76971281e+04  1.16e-05 2.52e-13  4.49e-08     6s
  26   1.77020549e+04  1.76983693e+04  4.51e-06 2.91e-13  2.12e-08     7s
  27   1.77011750e+04  1.76992003e+04  2.54e-06 2.90e-13  1.13e-08     7s
  28   1.77005756e+04  1.76997151e+04  1.26e-06 2.84e-13  4.93e-09     7s
  29   1.77002619e+04  1.76998236e+04  6.26e-07 3.87e-13  2.51e-09     7s
  30   1.77000308e+04  1.76999339e+04  1.51e-07 2.43e-13  5.55e-10     7s
  31   1.76999762e+04  1.76999524e+04  3.49e-08 2.91e-13  1.36e-10     7s
  32   1.76999629e+04  1.76999558e+04  8.02e-09 2.88e-13  4.12e-11     7s
  33   1.76999597e+04  1.76999572e+04  2.61e-09 3.48e-13  1.43e-11     8s
  34   1.76999584e+04  1.76999577e+04  7.54e-10 2.68e-13  3.96e-12     8s
  35   1.76999578e+04  1.76999578e+04  8.75e-08 2.56e-13  9.25e-13     8s

Barrier solved model in 35 iterations and 8.22 seconds (8.60 work units)
Optimal objective 1.76999578e+04

Crossover log...

      88 DPushes remaining with DInf 0.0000000e+00                 8s

Solved with dual simplex

Solved in 46453 iterations and 8.45 seconds (10.23 work units)
Optimal objective  1.769995785e+04

User-callback calls 505, time in user-callback 0.00 sec

=========================

OUTPUT STATISTICS
Relaxed: true
Time since start: 853.9942450523376
SetUpTime: 834.8652799129486
Objective value: 17699.957852507345
Number of variables: 336692
Solving time: 19.12791895866394
